# compared with  a try, the number of particle decrease with volume, set dt= 0.002tau,  minimize the energy; nvt T=0.33, remove momentum, 
#no velocity all zero angular and pair_coeff

# nohup mpirun --mca btl ^openib -np <no. of cores for this run> lmp_mpi -in run_sim.lmp > <output dir>/log &

# ------------------------ INITIALIZATION ----------------------------
units 		lj	# LJ units
atom_style	atomic
dimension	3	# 3D
boundary	p	p	p	# periodic boundary

variable timestep equal 0.002
variable dumpframe equal 1000000
pair_style	lj/cut 2.5
pair_modify shift yes


### variables to change ----------------------------------------------
variable T equal 0.4
variable dir_name string G0_07_T04
variable init_path string "init/G0_07.init"
### variables to change end ------------------------------------------

variable restart_path string "${dir_name}/restart${dir_name}.*"
variable out_traj_path string "${dir_name}/${dir_name}.traj"
variable log_path string "${dir_name}/log${dir_name}"

#if "$(file exists ${restart_path})" &
#    then "read_restart ${restart_path}" &
#    else "read_data ${init_path}"

read_data ${init_path}

log ${log_path}

minimize 1.0e-5 1.e-7 10000 10000
velocity all create ${T} 234946  # the second is a random number
velocity all zero linear
velocity all zero angular

neighbor	0.3 bin
neigh_modify	every 20 delay 0 check no

reset_timestep  0
timestep ${timestep}	# timestep equals 0.005 tau
fix    1 all nvt temp ${T} ${T} 0.2 
fix    2 all atom/swap 100 10 295889 ${T} semi-grand no types 1 2 phis 1 Rswap -1    # swap

dump 2 all custom ${dumpframe} ${out_traj_path} id x y z
dump_modify 2 sort id

# write init restart file
write_restart ${dir_name}/${dir_name}.init


#output in log file: step, temperature, total energy, volume, pairwise energy, pressure, and potential energy
thermo_style custom step temp etotal vol epair press pe		
thermo ${dumpframe}

label loop
run       10000000
write_restart ${restart_path}

jump SELF loop

